1982474
211,51,131,92,166,130,217,151,83,78,202,5,152,32,3,223,11,128,186,145,87,169,185,149,170,89,141,108,227,20,216,164,207,199,85,171,81,56,177,38,57,209,21,80,101,54,19,146,22,176,31,0,188,72,137,14,210,16,133,224,196,79,212,203,60,18,75,29,167,193,173,44,229,180,163,46,192,10,181,138,225,7,69,96,13,172,90,143,204,70,30,94,158,184,88,33,168,61,178,191,25,155,222,64,112,68,97,198,66,48,117,206,194,12,15,136,165,160,115,95,183,100,49,107,93,77,122,113,142,47,220,148,114,50,42,82,116,175,153,214,86,182,67,4,8,226,28,109,126,73,71,162,2,144,43,110,213,24,135,219,195,129,26,132,111,154,34,27,150,228,6,134,161,156,139,62,39,35,106,36,74,187,208,125,119,124,102,63,37,103,121,41,59,200,84,58,157,23,98,104,99,55,17,174,215,53,52,91,201,40,105,127,65,189,140,218,221,76,120,179,118,9,190,123,45,205,147,197,159,1
